5004266526170515212505,3,1,2,07,12,1,2,06,14,1,2,015,3,1,2,012,2,1,2,09,11,1,2,03,10,1,2,011,14,1,2,03,6,1,2,09,12,1,2,04,4,1,2,02,5,1,2,04,2,1,2,03,15,1,2,06,14,1,2,04,12,1,2,09,4,1,2,014,1,1,2,07,6,1,2,015,9,1,2,015,12,1,2,02,11,1,2,08,11,1,2,012,6,1,2,011,7,1,2,06,12,1,2,09,3,1,2,06,6,1,2,012,7,1,2,02,13,1,2,014,14,1,2,03,14,1,2,015,1,1,2,013,8,1,2,014,2,1,2,011,7,1,2,015,14,1,2,06,9,1,2,010,6,1,2,08,13,1,2,010,10,1,2,010,15,1,2,015,8,1,2,014,7,1,2,01,9,1,2,09,11,1,2,05,5,1,2,08,14,1,2,05,3,1,2,010,10,1,2,0